Problem:    
Rows:       256
Columns:    89 (72 integer, 72 binary)
Non-zeros:  960
Status:     INTEGER OPTIMAL
Objective:  value = 29.16628 (MINimum)

   No.   Row name        Activity     Lower bound   Upper bound
------ ------------    ------------- ------------- -------------
     1 r.5                   1029.17             0               
     2 r.6                  -986.661      -996.443               
     3 r.7                   29.1663             0               
     4 r.8                   13.3391      -995.128               
     5 r.9                   29.1663             0               
     6 r.10                  23.9798      -995.594               
     7 r.11                  1029.17             0               
     8 r.12                  -976.02      -994.567               
     9 r.13                  29.1663             0               
    10 r.14                  23.9798      -994.927               
    11 r.15                  1029.17             0               
    12 r.16                 -981.453      -992.943               
    13 r.17                  29.1663             0               
    14 r.18                  11.4894      -997.566               
    15 r.19                  1029.17             0               
    16 r.20                 -991.799      -995.604               
    17 r.21                  1029.17             0               
    18 r.22                 -992.438      -996.243               
    19 r.23                  29.1663             0               
    20 r.24                  15.6677      -994.179               
    21 r.25                  1029.17             0               
    22 r.26                 -998.808      -998.808               
    23 r.27                  29.1663             0               
    24 r.28                  5.88354      -989.269               
    25 r.29                  1029.17             0               
    26 r.30                 -970.834      -984.173               
    27 r.31                  29.1663             0               
    28 r.32                  29.1663      -949.791               
    29 r.33                  29.1663             0               
    30 r.34                  29.1663      -991.862               
    31 r.35                  1029.17             0               
    32 r.36                 -970.834      -994.813               
    33 r.37                        1             1             = 
    34 r.38                        1             1             = 
    35 r.39                        1             1             = 
    36 r.40                        1             1             = 
    37 r.41                        1             1             = 
    38 r.42                        1             1             = 
    39 r.43                        1             1             = 
    40 r.44                        1             1             = 
    41 r.45                     1001             2               
    42 r.46                    -1001         -1001               
    43 r.47                  2010.64      -995.594               
    44 r.48                     1001             2               
    45 r.49                    -1001         -1001               
    46 r.50                  2010.64      -994.567               
    47 r.51                     1001             2               
    48 r.52                    -1001         -1001               
    49 r.53                  2010.64      -994.927               
    50 r.54                     1001             2               
    51 r.55                    -1001         -1001               
    52 r.56                  2005.21      -992.943               
    53 r.57                     1001             2               
    54 r.58                    -1001         -1001               
    55 r.59                  1998.15      -997.566               
    56 r.60                     1001             2               
    57 r.61                    -1001         -1001               
    58 r.62                  1994.86      -995.604               
    59 r.63                        2             2               
    60 r.64                       -2         -1001               
    61 r.65                 -5.77668      -996.243               
    62 r.66                     1000             2               
    63 r.67                    -1000         -1001               
    64 r.68                  2002.33      -994.179               
    65 r.69                 -990.466      -996.443               
    66 r.70                  9.53361      -995.128               
    67 r.71                 -990.466      -996.443               
    68 r.72                  9.53361      -995.128               
    69 r.73                 -984.173      -984.173               
    70 r.74                  15.8272      -949.791               
    71 r.75                 -984.173      -984.173               
    72 r.76                  15.8272      -949.791               
    73 r.77                     1001             2               
    74 r.78                    -1001         -1001               
    75 r.79                  2015.83      -991.862               
    76 r.80                     1001             2               
    77 r.81                    -1001         -1001               
    78 r.82                  2015.83      -994.813               
    79 r.83                     1001             2               
    80 r.84                    -1001         -1001               
    81 r.85                  1989.36       3.55681               
    82 r.86                     1001             2               
    83 r.87                    -1001         -1001               
    84 r.88                  1989.36       4.87243               
    85 r.89                     1000             2               
    86 r.90                    -1000         -1001               
    87 r.91                     2000      -994.927               
    88 r.92                        2             2               
    89 r.93                       -2         -1001               
    90 r.94                 -5.43301      -992.943               
    91 r.95                     1000             2               
    92 r.96                    -1000         -1001               
    93 r.97                  1987.51      -997.566               
    94 r.98                        2             2               
    95 r.99                       -2         -1001               
    96 r.100                -15.7785      -995.604               
    97 r.101                    1001             2               
    98 r.102                   -1001         -1001               
    99 r.103                 1983.58      -996.243               
   100 r.104                    1001             2               
   101 r.105                   -1001         -1001               
   102 r.106                 1991.69      -994.179               
   103 r.107                 20.1743      -995.594               
   104 r.108                -979.826      -994.567               
   105 r.109                 20.1743      -995.594               
   106 r.110                -979.826      -994.567               
   107 r.111                    1001             2               
   108 r.112                   -1001         -1001               
   109 r.113                 2005.19      -984.173               
   110 r.114                    1001             2               
   111 r.115                   -1001         -1001               
   112 r.116                 2005.19      -949.791               
   113 r.117                  5.1865      -991.862               
   114 r.118                -994.813      -994.813               
   115 r.119                  5.1865      -991.862               
   116 r.120                -994.813      -994.813               
   117 r.121                    1001             2               
   118 r.122                   -1001         -1001               
   119 r.123                 1989.36       3.55681               
   120 r.124                    1001             2               
   121 r.125                   -1001         -1001               
   122 r.126                 1994.79       4.87243               
   123 r.127                    1000             2               
   124 r.128                   -1000         -1001               
   125 r.129                    2000       4.40642               
   126 r.130                       2             2               
   127 r.131                      -2         -1001               
   128 r.132                 5.43301       5.43301               
   129 r.133                 12.4904      -994.927               
   130 r.134                -992.943      -992.943               
   131 r.135                 15.7785      -994.927               
   132 r.136                -989.654      -992.943               
   133 r.137                    1001             2               
   134 r.138                   -1001         -1001               
   135 r.139                 1983.58      -996.243               
   136 r.140                    1001             2               
   137 r.141                   -1001         -1001               
   138 r.142                 1997.12      -994.179               
   139 r.143                 20.1743      -994.927               
   140 r.144                -985.259      -992.943               
   141 r.145                 20.1743      -994.927               
   142 r.146                -985.259      -992.943               
   143 r.147                    1001             2               
   144 r.148                   -1001         -1001               
   145 r.149                 2005.19      -984.173               
   146 r.150                    1001             2               
   147 r.151                   -1001         -1001               
   148 r.152                 2010.62      -949.791               
   149 r.153                  5.1865      -991.862               
   150 r.154                -994.813      -994.813               
   151 r.155                 10.6195      -991.862               
   152 r.156                 -989.38      -994.813               
   153 r.157                    1001             2               
   154 r.158                   -1001         -1001               
   155 r.159                 2001.85       3.55681               
   156 r.160                    1001             2               
   157 r.161                   -1001         -1001               
   158 r.162                 2005.14       4.87243               
   159 r.163                    1000             2               
   160 r.164                   -1000         -1001               
   161 r.165                 2012.49       4.40642               
   162 r.166                       2             2               
   163 r.167                      -2         -1001               
   164 r.168                 15.7785       5.43301               
   165 r.169                    1001             2               
   166 r.170                   -1001         -1001               
   167 r.171                 1996.07      -996.243               
   168 r.172                    1001             2               
   169 r.173                   -1001         -1001               
   170 r.174                 2007.47      -994.179               
   171 r.175                 7.68395      -997.566               
   172 r.176                -995.604      -995.604               
   173 r.177                 7.68395      -997.566               
   174 r.178                -995.604      -995.604               
   175 r.179                    1001             2               
   176 r.180                   -1001         -1001               
   177 r.181                 2017.68      -984.173               
   178 r.182                    1001             2               
   179 r.183                   -1001         -1001               
   180 r.184                 2020.97      -949.791               
   181 r.185                 17.6769      -991.862               
   182 r.186                -982.323      -994.813               
   183 r.187                  20.965      -991.862               
   184 r.188                -979.035      -994.813               
   185 r.189                       2             2               
   186 r.190                      -2         -1001               
   187 r.191                 3.55681       3.55681               
   188 r.192                    1000             2               
   189 r.193                   -1000         -1001               
   190 r.194                    2000       4.87243               
   191 r.195                    1001             2               
   192 r.196                   -1001         -1001               
   193 r.197                  2014.2       4.40642               
   194 r.198                    1001             2               
   195 r.199                   -1001         -1001               
   196 r.200                 2010.64       5.43301               
   197 r.201                    1001             2               
   198 r.202                   -1001         -1001               
   199 r.203                  2014.2        5.0728               
   200 r.204                    1001             2               
   201 r.205                   -1001         -1001               
   202 r.206                 2005.21       7.05735               
   203 r.207                    1001             2               
   204 r.208                   -1001         -1001               
   205 r.209                 2001.71        2.4338               
   206 r.210                    1001             2               
   207 r.211                   -1001         -1001               
   208 r.212                 1994.86       4.39578               
   209 r.213                -996.243      -996.243               
   210 r.214                 11.8622      -994.179               
   211 r.215                -996.243      -996.243               
   212 r.216                 11.8622      -994.179               
   213 r.217                -980.616      -984.173               
   214 r.218                  19.384      -949.791               
   215 r.219                -984.173      -984.173               
   216 r.220                 15.8272      -949.791               
   217 r.221                  19.384      -991.862               
   218 r.222                -980.616      -994.813               
   219 r.223                 15.8272      -991.862               
   220 r.224                -984.173      -994.813               
   221 r.225                    1001             2               
   222 r.226                   -1001         -1001               
   223 r.227                 1994.81       4.40642               
   224 r.228                    1001             2               
   225 r.229                   -1001         -1001               
   226 r.230                 1994.81       5.43301               
   227 r.231                    1001             2               
   228 r.232                   -1001         -1001               
   229 r.233                 1994.81        5.0728               
   230 r.234                    1001             2               
   231 r.235                   -1001         -1001               
   232 r.236                 1989.38       7.05735               
   233 r.237                    1001             2               
   234 r.238                   -1001         -1001               
   235 r.239                 1982.32        2.4338               
   236 r.240                    1001             2               
   237 r.241                   -1001         -1001               
   238 r.242                 1979.03       4.39578               
   239 r.243                    1001             2               
   240 r.244                   -1001         -1001               
   241 r.245                    2000      -991.862               
   242 r.246                    1001             2               
   243 r.247                   -1001         -1001               
   244 r.248                    2000      -994.813               
   245 r.249                    1001             2               
   246 r.250                   -1001         -1001               
   247 r.251                 1984.17       3.55681               
   248 r.252                    1001             2               
   249 r.253                   -1001         -1001               
   250 r.254                 1984.17       4.87243               
   251 r.255                    1001             2               
   252 r.256                   -1001         -1001               
   253 r.257                    2000       15.8272               
   254 r.258                    1001             2               
   255 r.259                   -1001         -1001               
   256 r.260                    2000        50.209               

   No. Column name       Activity     Lower bound   Upper bound
------ ------------    ------------- ------------- -------------
     1 tt                    29.1663             0               
     2 s_1_1        *              1             0             1 
     3 t_1_1                 15.8272             0               
     4 s_1_7        *              1             0             1 
     5 s_2_1        *              0             0             1 
     6 t_2_1                 15.8272             0               
     7 s_2_7        *              0             0             1 
     8 s_1_2        *              0             0             1 
     9 t_1_2                  5.1865             0               
    10 s_1_8        *              0             0             1 
    11 s_2_2        *              1             0             1 
    12 t_2_2                  5.1865             0               
    13 s_2_8        *              1             0             1 
    14 s_1_3        *              0             0             1 
    15 t_1_3                  5.1865             0               
    16 s_2_3        *              1             0             1 
    17 t_2_3                 10.6195             0               
    18 s_1_4        *              0             0             1 
    19 t_1_4                 17.6769             0               
    20 s_2_4        *              1             0             1 
    21 t_2_4                  20.965             0               
    22 s_1_5        *              1             0             1 
    23 t_1_5                  19.384             0               
    24 s_2_5        *              0             0             1 
    25 t_2_5                 15.8272             0               
    26 s_1_6        *              1             0             1 
    27 t_1_6                 25.3608             0               
    28 s_2_6        *              0             0             1 
    29 t_2_6                 25.3608             0               
    30 t_1_7                       0             0               
    31 t_2_7                       0             0               
    32 t_1_8                       0             0               
    33 t_2_8                       0             0               
    34 r_1_1_2      *              1             0             1 
    35 u_1_1_2      *              0             0             1 
    36 r_2_1_2      *              1             0             1 
    37 u_2_1_2      *              0             0             1 
    38 r_1_1_3      *              1             0             1 
    39 u_1_1_3      *              0             0             1 
    40 r_2_1_3      *              1             0             1 
    41 u_2_1_3      *              0             0             1 
    42 r_1_1_4      *              1             0             1 
    43 u_1_1_4      *              0             0             1 
    44 r_2_1_4      *              1             0             1 
    45 u_2_1_4      *              0             0             1 
    46 r_1_1_5      *              0             0             1 
    47 u_1_1_5      *              0             0             1 
    48 r_2_1_5      *              1             0             1 
    49 u_2_1_5      *              0             0             1 
    50 r_1_1_8      *              1             0             1 
    51 u_1_1_8      *              0             0             1 
    52 r_2_1_8      *              1             0             1 
    53 u_2_1_8      *              0             0             1 
    54 r_1_2_3      *              1             0             1 
    55 u_1_2_3      *              0             0             1 
    56 r_2_2_3      *              0             0             1 
    57 u_2_2_3      *              0             0             1 
    58 r_1_2_4      *              1             0             1 
    59 u_1_2_4      *              0             0             1 
    60 r_2_2_4      *              0             0             1 
    61 u_2_2_4      *              0             0             1 
    62 r_1_2_5      *              1             0             1 
    63 u_1_2_5      *              0             0             1 
    64 r_2_2_5      *              1             0             1 
    65 u_2_2_5      *              0             0             1 
    66 r_1_2_7      *              1             0             1 
    67 u_1_2_7      *              0             0             1 
    68 r_2_2_7      *              1             0             1 
    69 u_2_2_7      *              0             0             1 
    70 r_1_3_5      *              1             0             1 
    71 u_1_3_5      *              0             0             1 
    72 r_2_3_5      *              1             0             1 
    73 u_2_3_5      *              0             0             1 
    74 r_1_3_7      *              1             0             1 
    75 u_1_3_7      *              0             0             1 
    76 r_2_3_7      *              1             0             1 
    77 u_2_3_7      *              0             0             1 
    78 r_1_4_5      *              1             0             1 
    79 u_1_4_5      *              0             0             1 
    80 r_2_4_5      *              1             0             1 
    81 u_2_4_5      *              0             0             1 
    82 r_1_4_7      *              1             0             1 
    83 u_1_4_7      *              0             0             1 
    84 r_2_4_7      *              1             0             1 
    85 u_2_4_7      *              0             0             1 
    86 r_1_7_8      *              1             0             1 
    87 u_1_7_8      *              0             0             1 
    88 r_2_7_8      *              1             0             1 
    89 u_2_7_8      *              0             0             1 

Integer feasibility conditions:

KKT.PE: max.abs.err = 2.27e-13 on row 58
        max.rel.err = 7.25e-17 on row 96
        High quality

KKT.PB: max.abs.err = 1.14e-13 on row 22
        max.rel.err = 1.14e-16 on row 22
        High quality

End of output
